1 1 2 0
1 -1 3 0
1 1 -4 0
1 1 5 0
1 -2 6 0
1 -7 8 0
1 -7 9 0
1 7 -10 0
1 7 -6 0
1 7 -11 0
1 7 -12 0
1 10 9 0
1 10 -13 0
1 10 -7 0
1 11 -14 0
1 -11 15 0
1 11 -5 0
1 5 16 0
1 5 -17 0
1 5 18 0
1 -5 7 0
1 6 -19 0
1 -6 -20 0
1 -6 -2 0
1 -6 21 0
1 6 -17 0
1 6 -3 0
1 3 14 0
1 3 -17 0
1 3 7 0
1 -3 -22 0
1 -15 -9 0
1 -15 12 0
1 -15 5 0
1 18 9 0
1 18 -23 0
1 18 -24 0
1 -18 12 0
1 -18 25 0
1 -26 9 0
1 26 -23 0
1 26 -19 0
1 -26 24 0
1 -26 12 0
1 -12 -27 0
1 12 18 0
1 9 -28 0
1 9 -29 0
1 -9 10 0
1 -9 -18 0
1 9 -7 0
1 -9 -30 0
1 -31 -14 0
1 31 27 0
1 -31 -32 0
1 31 33 0
1 -31 7 0
1 31 30 0
1 8 26 0
1 -8 31 0
1 8 -15 0
1 -34 -35 0
1 -34 -23 0
1 34 17 0
1 35 -14 0
1 36 -12 0
1 36 -25 0
1 -25 -24 0
1 -25 -18 0
1 24 37 0
1 24 38 0
1 -24 -18 0
1 39 -28 0
1 -39 -32 0
1 -39 36 0
1 39 18 0
1 -39 30 0
1 23 -28 0
1 -23 -35 0
1 23 -18 0
1 -23 -40 0
1 4 -41 0
1 4 1 0
1 42 -43 0
1 42 2 0
1 -42 44 0
1 45 46 0
1 -45 41 0
1 45 47 0
1 -45 7 0
1 13 -48 0
1 -13 -49 0
1 50 -19 0
1 50 51 0
1 -50 -20 0
1 50 45 0
1 44 20 0
1 -44 13 0
1 -44 52 0
1 -43 -53 0
1 -43 41 0
1 43 -54 0
1 43 -55 0
1 41 53 0
1 -41 -42 0
1 41 -56 0
1 -41 -54 0
1 -57 -44 0
1 -57 47 0
1 -57 49 0
1 -20 58 0
1 20 -46 0
1 -20 59 0
1 20 44 0
1 -20 57 0
1 -52 -50 0
1 52 -46 0
1 -52 -60 0
1 -52 47 0
1 52 18 0
1 -52 -54 0
1 -19 -50 0
1 19 61 0
1 -19 46 0
1 -19 -44 0
1 19 52 0
1 -19 62 0
1 19 -63 0
1 -46 -14 0
1 -46 -64 0
1 -46 -65 0
1 49 19 0
1 49 20 0
1 49 -17 0
1 -49 -52 0
1 49 -66 0
1 -58 67 0
1 58 -47 0
1 58 -52 0
1 -58 -57 0
1 58 45 0
1 -47 68 0
1 -47 -19 0
1 -47 20 0
1 -47 13 0
1 -17 -8 0
1 17 14 0
1 17 -34 0
1 17 56 0
1 14 53 0
1 14 -46 0
1 14 6 0
1 14 49 0
1 14 3 0
1 65 8 0
1 65 -69 0
1 65 70 0
1 65 36 0
1 65 49 0
1 -65 -62 0
1 65 -63 0
1 65 -22 0
1 -71 -28 0
1 -71 -8 0
1 71 46 0
1 -71 -69 0
1 71 70 0
1 71 65 0
1 60 72 0
1 -60 52 0
1 -60 73 0
1 63 74 0
1 63 75 0
1 -69 -71 0
1 69 14 0
1 -69 -19 0
1 69 65 0
1 69 -76 0
1 62 -19 0
1 62 17 0
1 62 73 0
1 -62 -76 0
1 32 -60 0
1 32 31 0
1 32 70 0
1 32 -63 0
1 30 67 0
1 -30 -16 0
1 30 -70 0
1 -75 60 0
1 -75 21 0
1 -75 70 0
1 -75 33 0
1 75 -39 0
1 -75 -63 0
1 -77 16 0
1 77 60 0
1 -77 75 0
1 -77 -21 0
1 77 -22 0
1 -77 -63 0
1 70 -71 0
1 -70 -78 0
1 70 75 0
1 -70 32 0
1 70 65 0
1 -70 77 0
1 16 79 0
1 16 38 0
1 16 5 0
1 -16 80 0
1 16 -40 0
1 -16 77 0
1 21 79 0
1 -21 -65 0
1 -21 -77 0
1 -21 22 0
1 -21 30 0
1 22 81 0
1 -22 -3 0
1 22 77 0
1 -22 -30 0
1 38 24 0
1 -38 74 0
1 -38 -70 0
1 -40 16 0
1 40 -29 0
1 -40 38 0
1 -40 -70 0
1 78 -82 0
1 -78 -83 0
1 -78 -37 0
1 78 -33 0
1 83 -16 0
1 83 -29 0
1 -83 70 0
1 83 -33 0
1 83 84 0
1 -83 -85 0
1 -83 -86 0
1 84 -87 0
1 -84 78 0
1 84 -88 0
1 84 -89 0
1 84 77 0
1 29 9 0
1 29 -87 0
1 -29 -89 0
1 33 -87 0
1 33 79 0
1 33 31 0
1 33 40 0
1 33 -77 0
1 -90 8 0
1 90 -79 0
1 -90 -78 0
1 90 38 0
1 90 -33 0
1 90 -80 0
1 91 -37 0
1 91 79 0
1 91 92 0
1 -91 -84 0
1 91 -85 0
1 89 -92 0
1 93 -29 0
1 -94 -92 0
1 85 37 0
1 85 -78 0
1 85 95 0
1 37 -91 0
1 37 96 0
1 37 -78 0
1 37 83 0
1 37 85 0
1 92 -93 0
1 -92 -82 0
1 -92 78 0
1 82 -97 0
1 82 -98 0
1 82 87 0
1 82 99 0
1 82 78 0
1 82 -100 0
1 82 -101 0
1 -82 92 0
1 -82 102 0
1 82 -83 0
1 103 -104 0
1 103 -105 0
1 105 -104 0
1 -105 -106 0
1 -107 -108 0
1 -48 -13 0
1 48 -109 0
1 -106 -110 0
1 106 -108 0
1 106 111 0
1 108 -106 0
1 108 -110 0
1 -108 61 0
1 -109 -112 0
1 -109 113 0
1 109 -114 0
1 109 -115 0
1 -109 107 0
1 -109 -103 0
1 104 -116 0
1 104 -115 0
1 55 108 0
1 -55 117 0
1 -55 118 0
1 59 43 0
1 -59 -108 0
1 59 -41 0
1 -59 -106 0
1 -59 55 0
1 -54 119 0
1 54 -61 0
1 -54 120 0
1 -54 -121 0
1 -54 115 0
1 54 122 0
1 61 119 0
1 -61 -113 0
1 -61 120 0
1 61 123 0
1 -61 122 0
1 122 -124 0
1 122 -53 0
1 -122 61 0
1 -122 -59 0
1 122 -123 0
1 -122 -56 0
1 122 54 0
1 -123 -68 0
1 -123 -53 0
1 -123 -61 0
1 123 54 0
1 -123 107 0
1 -117 124 0
1 117 125 0
1 -117 61 0
1 -117 -120 0
1 117 -48 0
1 117 -126 0
1 117 54 0
1 120 124 0
1 -120 -125 0
1 120 110 0
1 -120 -117 0
1 120 -127 0
1 -120 107 0
1 -56 -53 0
1 -56 44 0
1 56 -122 0
1 53 119 0
1 -53 50 0
1 -53 -128 0
1 -53 -122 0
1 -129 -130 0
1 129 -58 0
1 -129 -128 0
1 -129 -47 0
1 -129 -127 0
1 68 71 0
1 68 51 0
1 68 -123 0
1 68 -121 0
1 68 -47 0
1 68 -131 0
1 119 67 0
1 119 -68 0
1 119 53 0
1 -119 132 0
1 -119 121 0
1 119 56 0
1 -121 -67 0
1 121 -68 0
1 121 -132 0
1 -121 64 0
1 121 -56 0
1 121 76 0
1 -133 124 0
1 133 -53 0
1 -133 -134 0
1 -133 128 0
1 133 -135 0
1 -133 56 0
1 -133 54 0
1 -128 -68 0
1 128 53 0
1 -128 61 0
1 128 132 0
1 -64 -67 0
1 -64 -130 0
1 -64 -46 0
1 -64 69 0
1 -64 -126 0
1 -64 131 0
1 64 -47 0
1 67 130 0
1 67 -58 0
1 67 -121 0
1 -67 -47 0
1 -67 49 0
1 -67 -30 0
1 -136 -119 0
1 136 -137 0
1 -136 -76 0
1 76 -130 0
1 76 -51 0
1 -76 -138 0
1 76 69 0
1 76 -131 0
1 76 62 0
1 76 77 0
1 51 -68 0
1 51 -139 0
1 51 81 0
1 -51 74 0
1 51 131 0
1 51 140 0
1 -51 86 0
1 -51 -73 0
1 -51 -76 0
1 131 -68 0
1 131 51 0
1 131 74 0
1 -131 64 0
1 131 -141 0
1 130 142 0
1 130 136 0
1 -130 64 0
1 -130 143 0
1 -143 67 0
1 143 68 0
1 -143 -132 0
1 -143 41 0
1 -74 -69 0
1 74 -38 0
1 74 132 0
1 -74 -131 0
1 74 66 0
1 -74 -73 0
1 -74 -22 0
1 73 138 0
1 -73 66 0
1 73 -40 0
1 -81 144 0
1 81 -145 0
1 -81 131 0
1 -86 -66 0
1 86 83 0
1 -86 146 0
1 86 147 0
1 138 -148 0
1 138 149 0
1 -138 -80 0
1 138 -86 0
1 66 -150 0
1 66 151 0
1 66 -73 0
1 -66 -76 0
1 137 -148 0
1 137 58 0
1 -137 -81 0
1 137 -149 0
1 137 -152 0
1 -137 73 0
1 137 76 0
1 -153 154 0
1 153 -137 0
1 153 74 0
1 79 -66 0
1 -79 138 0
1 -79 155 0
1 -79 -72 0
1 79 70 0
1 79 33 0
1 79 -80 0
1 -79 -147 0
1 80 89 0
1 -80 -66 0
1 80 -22 0
1 156 33 0
1 -156 -66 0
1 -156 -144 0
1 156 147 0
1 -156 -157 0
1 -150 158 0
1 -150 90 0
1 150 156 0
1 -150 155 0
1 150 72 0
1 150 -159 0
1 -150 144 0
1 150 -147 0
1 72 -160 0
1 -72 161 0
1 72 162 0
1 72 150 0
1 72 86 0
1 72 147 0
1 -147 -98 0
1 -147 -156 0
1 -147 79 0
1 -147 162 0
1 -147 -102 0
1 -147 150 0
1 147 63 0
1 147 -163 0
1 155 -81 0
1 -155 164 0
1 -155 149 0
1 144 -155 0
1 87 -29 0
1 102 -87 0
1 102 29 0
1 -102 72 0
1 102 -33 0
1 102 -149 0
1 -98 -158 0
1 -98 -159 0
1 -98 -165 0
1 98 88 0
1 -101 -166 0
1 -167 -98 0
1 167 156 0
1 -167 168 0
1 -167 -169 0
1 167 70 0
1 167 -170 0
1 158 -98 0
1 158 -87 0
1 158 -167 0
1 158 -171 0
1 -159 172 0
1 -159 -162 0
1 -159 -170 0
1 -157 160 0
1 157 -98 0
1 -157 -168 0
1 157 -159 0
1 157 102 0
1 -157 150 0
1 157 -173 0
1 -97 -160 0
1 -97 174 0
1 -97 -100 0
1 -97 -88 0
1 97 85 0
1 100 -174 0
1 -100 -88 0
1 171 -169 0
1 171 165 0
1 -171 -88 0
1 -169 -174 0
1 169 167 0
1 169 88 0
1 -88 -98 0
1 -88 -174 0
1 -88 -169 0
1 88 -100 0
1 88 84 0
1 -88 -175 0
1 88 -176 0
1 174 -177 0
1 -174 169 0
1 174 175 0
1 165 -97 0
1 165 33 0
1 166 -169 0
1 166 -165 0
1 176 95 0
1 -176 -170 0
1 177 -96 0
1 -178 -179 0
1 178 180 0
1 179 -174 0
1 -179 -99 0
1 -179 -181 0
1 95 177 0
1 95 169 0
1 -95 178 0
1 95 171 0
1 181 175 0
1 181 -171 0
1 -99 -182 0
1 -99 -183 0
1 99 -177 0
1 99 169 0
1 -99 -184 0
1 -99 176 0
1 -99 171 0
1 185 -186 0
1 185 -187 0
1 185 188 0
1 -189 186 0
1 189 -190 0
1 189 191 0
1 192 48 0
1 192 193 0
1 192 -194 0
1 190 -195 0
1 -190 196 0
1 -190 188 0
1 -190 197 0
1 188 113 0
1 -188 192 0
1 -188 -185 0
1 188 -198 0
1 188 199 0
1 -188 -189 0
1 -186 195 0
1 -186 200 0
1 -186 197 0
1 200 201 0
1 200 202 0
1 200 -198 0
1 200 189 0
1 118 -114 0
1 -118 190 0
1 118 193 0
1 -118 194 0
1 -114 -203 0
1 -114 109 0
1 -114 -188 0
1 114 118 0
1 -114 191 0
1 -115 -204 0
1 115 194 0
1 113 104 0
1 113 61 0
1 -113 -201 0
1 113 -203 0
1 -113 -204 0
1 193 -113 0
1 -193 114 0
1 193 205 0
1 -193 -189 0
1 -194 -114 0
1 -194 -205 0
1 -194 -127 0
1 -194 -115 0
1 -194 118 0
1 203 -206 0
1 -203 113 0
1 -203 -114 0
1 -203 -189 0
1 -191 -207 0
1 -191 195 0
1 -191 -113 0
1 -191 -192 0
1 191 -118 0
1 191 -189 0
1 -116 -208 0
1 116 -108 0
1 -116 -120 0
1 116 -209 0
1 116 56 0
1 -110 -104 0
1 110 -209 0
1 -110 117 0
1 127 -210 0
1 127 112 0
1 -125 208 0
1 -125 206 0
1 125 209 0
1 -125 112 0
1 -125 -111 0
1 -125 -117 0
1 209 -124 0
1 -209 110 0
1 209 211 0
1 208 -124 0
1 -208 212 0
1 208 -110 0
1 208 -113 0
1 -208 126 0
1 -208 -213 0
1 -204 207 0
1 -204 214 0
1 204 -116 0
1 -204 115 0
1 210 -215 0
1 -210 211 0
1 210 -116 0
1 210 -216 0
1 -126 217 0
1 126 -205 0
1 -126 112 0
1 126 -111 0
1 126 -117 0
1 124 -208 0
1 -124 209 0
1 -124 117 0
1 -135 208 0
1 -135 218 0
1 135 217 0
1 135 128 0
1 135 136 0
1 135 -112 0
1 -213 219 0
1 -213 -208 0
1 213 220 0
1 213 -112 0
1 111 -125 0
1 -111 217 0
1 -111 132 0
1 111 221 0
1 111 -127 0
1 111 213 0
1 217 -222 0
1 -217 213 0
1 -112 -223 0
1 112 224 0
1 112 -211 0
1 112 -126 0
1 112 127 0
1 -112 109 0
1 -112 225 0
1 112 -226 0
1 -112 213 0
1 218 -125 0
1 218 223 0
1 -218 -126 0
1 218 -112 0
1 218 -216 0
1 -218 213 0
1 132 -119 0
1 -132 -220 0
1 132 -211 0
1 132 121 0
1 -132 -143 0
1 -132 227 0
1 132 -222 0
1 -132 133 0
1 -222 -130 0
1 -222 228 0
1 222 -216 0
1 -145 -130 0
1 145 228 0
1 145 -81 0
1 145 -220 0
1 145 -224 0
1 -145 229 0
1 -145 143 0
1 146 -217 0
1 146 230 0
1 146 -143 0
1 -146 -226 0
1 -146 227 0
1 146 -134 0
1 227 140 0
1 227 222 0
1 220 -145 0
1 -220 135 0
1 220 -231 0
1 -220 -140 0
1 -232 -233 0
1 232 -132 0
1 -232 225 0
1 232 146 0
1 232 -222 0
1 228 145 0
1 -228 -234 0
1 228 146 0
1 228 -213 0
1 139 -137 0
1 139 223 0
1 -139 -140 0
1 -139 -227 0
1 140 220 0
1 140 -230 0
1 -140 -153 0
1 140 80 0
1 235 236 0
1 -235 156 0
1 -235 153 0
1 -235 -134 0
1 152 -235 0
1 152 141 0
1 152 -150 0
1 152 227 0
1 -152 -134 0
1 237 -119 0
1 -237 230 0
1 -237 164 0
1 -237 -149 0
1 230 148 0
1 -230 -235 0
1 230 238 0
1 -230 164 0
1 -230 -140 0
1 -134 -231 0
1 134 -152 0
1 -134 -140 0
1 229 235 0
1 229 -238 0
1 229 -239 0
1 229 -152 0
1 229 -140 0
1 148 87 0
1 -148 -240 0
1 -148 -138 0
1 148 -155 0
1 -148 230 0
1 -148 -241 0
1 -148 141 0
1 -148 153 0
1 -149 -138 0
1 -149 155 0
1 -149 230 0
1 -149 -102 0
1 149 241 0
1 149 231 0
1 -149 -153 0
1 149 -141 0
1 -149 144 0
1 242 243 0
1 -242 -155 0
1 -242 141 0
1 164 242 0
1 -164 142 0
1 -164 -236 0
1 164 -243 0
1 164 154 0
1 -164 151 0
1 -164 -144 0
1 -236 244 0
1 236 -141 0
1 -141 160 0
1 141 -242 0
1 141 244 0
1 141 149 0
1 141 -152 0
1 -142 245 0
1 142 235 0
1 142 164 0
1 142 241 0
1 241 235 0
1 -241 244 0
1 -241 -164 0
1 -241 -143 0
1 -241 149 0
1 -241 -246 0
1 -241 -152 0
1 160 -247 0
1 160 -154 0
1 162 -72 0
1 -162 -147 0
1 173 172 0
1 173 -157 0
1 -172 248 0
1 -172 -169 0
1 172 -141 0
1 172 -151 0
1 243 -242 0
1 243 -138 0
1 243 249 0
1 243 -168 0
1 -243 -172 0
1 243 -164 0
1 243 -173 0
1 151 -160 0
1 151 -242 0
1 -151 243 0
1 151 162 0
1 151 250 0
1 -151 -180 0
1 -151 173 0
1 -247 -137 0
1 247 -173 0
1 -154 251 0
1 154 -247 0
1 154 -162 0
1 -154 252 0
1 154 173 0
1 -170 -158 0
1 170 243 0
1 170 248 0
1 170 -167 0
1 -170 -163 0
1 -168 166 0
1 168 -165 0
1 168 -253 0
1 -168 157 0
1 -180 -254 0
1 180 -255 0
1 -180 165 0
1 -180 163 0
1 -255 -254 0
1 255 -248 0
1 -255 -256 0
1 255 257 0
1 255 165 0
1 161 258 0
1 161 -259 0
1 -163 258 0
1 -163 172 0
1 163 260 0
1 163 -184 0
1 163 -147 0
1 163 -170 0
1 163 173 0
1 248 180 0
1 -248 -173 0
1 -253 251 0
1 -253 -248 0
1 -253 144 0
1 253 173 0
1 175 -261 0
1 175 -174 0
1 -175 88 0
1 -183 -261 0
1 -183 -174 0
1 183 -256 0
1 183 257 0
1 -183 -88 0
1 184 262 0
1 -184 182 0
1 -184 -161 0
1 -184 181 0
1 -182 263 0
1 182 264 0
1 -182 257 0
1 -257 265 0
1 -257 -183 0
1 257 -167 0
1 -257 266 0
1 257 267 0
1 -254 -268 0
1 -254 -265 0
1 -254 158 0
1 -254 269 0
1 254 270 0
1 -254 184 0
1 -256 -261 0
1 -256 271 0
1 256 272 0
1 -256 -260 0
1 -261 258 0
1 261 -256 0
1 -261 260 0
1 261 157 0
1 -266 262 0
1 -266 273 0
1 -266 95 0
1 274 -258 0
1 274 181 0
1 -274 -95 0
1 270 -254 0
1 -270 275 0
1 270 -276 0
1 -270 -277 0
1 270 278 0
1 270 279 0
1 -265 -262 0
1 265 279 0
1 273 -280 0
1 273 -270 0
1 273 266 0
1 -273 -184 0
1 273 -281 0
1 264 274 0
1 -264 -182 0
1 264 281 0
1 -264 -282 0
1 277 -265 0
1 -277 -283 0
1 -277 284 0
1 -262 283 0
1 262 184 0
1 -280 276 0
1 -280 -282 0
1 282 -275 0
1 282 -276 0
1 -282 -278 0
1 -285 -278 0
1 285 -279 0
1 279 -265 0
1 -279 286 0
1 279 -280 0
1 -279 -95 0
1 -279 -281 0
1 -279 -282 0
1 -278 287 0
1 -278 280 0
1 275 99 0
1 275 -288 0
1 275 -289 0
1 -275 -281 0
1 290 -187 0
1 -290 -197 0
1 187 -291 0
1 187 292 0
1 293 -294 0
1 -293 295 0
1 293 -291 0
1 293 296 0
1 -293 -189 0
1 293 292 0
1 295 292 0
1 -297 290 0
1 297 298 0
1 298 -297 0
1 -298 299 0
1 298 300 0
1 -298 293 0
1 292 293 0
1 292 -301 0
1 -291 -293 0
1 -302 -294 0
1 302 -303 0
1 -302 -304 0
1 -302 -118 0
1 -299 -303 0
1 -299 -114 0
1 -299 -298 0
1 -299 304 0
1 -299 -200 0
1 299 302 0
1 300 297 0
1 300 303 0
1 300 -305 0
1 300 304 0
1 201 -297 0
1 -201 294 0
1 201 303 0
1 201 -306 0
1 201 -113 0
1 -201 -296 0
1 -303 -307 0
1 303 308 0
1 -303 -296 0
1 303 -309 0
1 -303 198 0
1 -303 300 0
1 -303 -293 0
1 -296 -206 0
1 296 299 0
1 296 -198 0
1 296 -300 0
1 294 -310 0
1 -294 -201 0
1 294 -299 0
1 -294 304 0
1 -294 311 0
1 294 300 0
1 294 302 0
1 304 -201 0
1 304 299 0
1 304 -295 0
1 304 312 0
1 -304 311 0
1 198 -186 0
1 198 -200 0
1 -198 296 0
1 -198 -116 0
1 -198 -188 0
1 -195 -305 0
1 -195 186 0
1 195 -296 0
1 195 -313 0
1 309 -303 0
1 309 -206 0
1 -309 305 0
1 309 -313 0
1 -309 199 0
1 206 125 0
1 -206 -303 0
1 -206 -202 0
1 206 -191 0
1 -305 -207 0
1 -305 -195 0
1 -305 201 0
1 -305 314 0
1 305 309 0
1 -305 -315 0
1 -316 -219 0
1 -316 -206 0
1 -316 305 0
1 316 -205 0
1 -316 315 0
1 -306 317 0
1 306 307 0
1 -306 195 0
1 -306 318 0
1 -306 201 0
1 -306 -311 0
1 313 -195 0
1 313 -309 0
1 313 -319 0
1 313 198 0
1 -313 300 0
1 205 -316 0
1 -205 202 0
1 205 -191 0
1 207 -210 0
1 207 -305 0
1 -207 203 0
1 207 204 0
1 -207 194 0
1 214 -320 0
1 214 321 0
1 214 322 0
1 -214 323 0
1 214 -316 0
1 214 -202 0
1 214 199 0
1 214 -324 0
1 219 -321 0
1 219 -204 0
1 -219 199 0
1 196 325 0
1 196 224 0
1 196 -190 0
1 -196 -326 0
1 -196 -214 0
1 196 -327 0
1 196 -199 0
1 -199 325 0
1 -199 196 0
1 199 -214 0
1 199 -226 0
1 -328 -206 0
1 328 -329 0
1 -328 202 0
1 202 -329 0
1 211 -324 0
1 -211 -209 0
1 -211 -112 0
1 211 216 0
1 -216 -320 0
1 -216 -210 0
1 -216 196 0
1 216 321 0
1 -216 322 0
1 -224 215 0
1 224 218 0
1 -224 -145 0
1 224 -321 0
1 224 -322 0
1 224 -112 0
1 -224 -226 0
1 -226 -330 0
1 226 112 0
1 226 146 0
1 226 331 0
1 226 -324 0
1 -322 -223 0
1 322 -193 0
1 322 332 0
1 320 219 0
1 -320 233 0
1 -321 -224 0
1 -321 -203 0
1 321 333 0
1 -321 -216 0
1 324 -224 0
1 324 321 0
1 -324 216 0
1 -324 334 0
1 -223 215 0
1 -223 228 0
1 -223 -322 0
1 -225 320 0
1 -225 -217 0
1 225 -111 0
1 225 -112 0
1 225 -140 0
1 -233 322 0
1 -233 -335 0
1 -335 336 0
1 -330 -337 0
1 -330 -224 0
1 330 338 0
1 330 -239 0
1 330 231 0
1 -330 -339 0
1 -340 215 0
1 -340 341 0
1 -340 -204 0
1 -215 -342 0
1 215 -338 0
1 -240 -148 0
1 -240 343 0
1 240 -344 0
1 -240 220 0
1 240 -229 0
1 -240 231 0
1 -240 330 0
1 240 -345 0
1 -240 -232 0
1 240 -134 0
1 -231 -212 0
1 -231 -336 0
1 231 333 0
1 337 -242 0
1 -337 -234 0
1 337 229 0
1 -337 239 0
1 337 -330 0
1 337 -346 0
1 239 -344 0
1 239 347 0
1 239 229 0
1 -239 164 0
1 239 -134 0
1 221 238 0
1 -221 335 0
1 221 -348 0
1 221 -349 0
1 336 -350 0
1 -336 351 0
1 336 352 0
1 336 -239 0
1 336 221 0
1 336 349 0
1 345 -233 0
1 345 -239 0
1 345 -112 0
1 345 335 0
1 344 -353 0
1 -344 337 0
1 -344 -351 0
1 -350 -237 0
1 -350 341 0
1 -350 142 0
1 350 336 0
1 350 -234 0
1 350 238 0
1 238 -336 0
1 -238 347 0
1 238 230 0
1 -238 -338 0
1 238 221 0
1 -354 234 0
1 354 -347 0
1 -354 241 0
1 354 355 0
1 -354 346 0
1 354 173 0
1 -352 -356 0
1 352 -357 0
1 352 -358 0
1 352 -221 0
1 -346 -359 0
1 -346 -347 0
1 -346 352 0
1 346 239 0
1 346 -360 0
1 -347 354 0
1 347 350 0
1 -347 337 0
1 -347 361 0
1 -347 -359 0
1 -347 362 0
1 347 352 0
1 347 239 0
1 -355 350 0
1 -355 -337 0
1 355 -234 0
1 355 -360 0
1 -355 363 0
1 355 349 0
1 -234 -351 0
1 234 -352 0
1 -234 349 0
1 -244 -364 0
1 -244 -356 0
1 244 142 0
1 -244 168 0
1 -244 -351 0
1 244 -365 0
1 -244 -358 0
1 -366 364 0
1 366 245 0
1 366 -247 0
1 -366 -246 0
1 366 154 0
1 -366 -363 0
1 -359 -367 0
1 -359 -246 0
1 -359 366 0
1 356 -251 0
1 356 244 0
1 -356 -352 0
1 356 366 0
1 358 356 0
1 358 -230 0
1 358 -368 0
1 358 250 0
1 364 -369 0
1 364 370 0
1 -364 359 0
1 364 -352 0
1 364 371 0
1 -364 -366 0
1 -365 -354 0
1 -365 -370 0
1 365 -229 0
1 365 371 0
1 365 -360 0
1 -365 366 0
1 250 -367 0
1 -250 -251 0
1 250 -243 0
1 -250 248 0
1 -250 372 0
1 250 -175 0
1 251 -245 0
1 -251 247 0
1 -251 361 0
1 -251 243 0
1 251 -372 0
1 -251 154 0
1 251 -250 0
1 373 367 0
1 373 249 0
1 373 246 0
1 -373 -371 0
1 373 -252 0
1 -263 374 0
1 -263 367 0
1 -263 252 0
1 263 -375 0
1 -367 -258 0
1 367 -263 0
1 -367 376 0
1 -367 372 0
1 -367 373 0
1 372 -367 0
1 -372 -251 0
1 -372 373 0
1 -372 377 0
1 372 366 0
1 245 142 0
1 -245 -376 0
1 245 246 0
1 -245 368 0
1 245 366 0
1 246 378 0
1 246 370 0
1 -246 245 0
1 246 251 0
1 246 -359 0
1 246 -373 0
1 -260 -379 0
1 260 -161 0
1 260 -266 0
1 -260 -372 0
1 -260 -253 0
1 -260 163 0
1 -258 -367 0
1 258 -249 0
1 -258 161 0
1 -258 252 0
1 -258 375 0
1 -258 163 0
1 380 249 0
1 380 -259 0
1 271 -261 0
1 271 256 0
1 -271 375 0
1 271 381 0
1 249 -258 0
1 -249 -283 0
1 -249 380 0
1 249 -260 0
1 249 -382 0
1 -375 249 0
1 -375 283 0
1 -375 -260 0
1 -379 -271 0
1 379 383 0
1 -379 -380 0
1 -379 260 0
1 379 382 0
1 252 379 0
1 -252 154 0
1 -284 261 0
1 -284 254 0
1 -284 249 0
1 -284 256 0
1 284 277 0
1 268 -254 0
1 268 -277 0
1 283 375 0
1 283 249 0
1 283 285 0
1 -283 -383 0
1 -283 -272 0
1 283 -267 0
1 -283 -277 0
1 -384 259 0
1 384 272 0
1 384 -375 0
1 384 -381 0
1 -259 385 0
1 -259 289 0
1 -259 161 0
1 259 -384 0
1 -381 283 0
1 381 386 0
1 -381 -163 0
1 -387 -248 0
1 387 -388 0
1 387 283 0
1 -387 389 0
1 -387 -380 0
1 387 386 0
1 387 -384 0
1 389 -268 0
1 -389 390 0
1 389 387 0
1 -389 -284 0
1 389 -386 0
1 -389 382 0
1 389 -384 0
1 -289 -269 0
1 -289 -275 0
1 289 388 0
1 -289 267 0
1 -391 -269 0
1 391 262 0
1 -391 381 0
1 287 269 0
1 287 -392 0
1 -287 259 0
1 -287 272 0
1 -287 393 0
1 394 -395 0
1 267 396 0
1 -269 254 0
1 269 -283 0
1 272 395 0
1 272 397 0
1 -272 -287 0
1 -272 289 0
1 272 386 0
1 395 398 0
1 395 394 0
1 -395 384 0
1 286 -269 0
1 -286 399 0
1 286 278 0
1 -399 386 0
1 -399 -279 0
1 -400 288 0
1 -400 267 0
1 400 -401 0
1 396 -269 0
1 396 -392 0
1 396 393 0
1 396 -401 0
1 402 -394 0
1 393 403 0
1 -393 400 0
1 393 286 0
1 -393 -396 0
1 -393 -399 0
1 -392 -404 0
1 -392 403 0
1 392 405 0
1 -392 -398 0
1 -406 -402 0
1 -406 288 0
1 -407 406 0
1 -407 -402 0
1 407 -408 0
1 409 -404 0
1 409 410 0
1 409 401 0
1 411 -288 0
1 411 408 0
1 -401 -408 0
1 401 -407 0
1 401 396 0
1 -408 -411 0
1 -288 400 0
1 288 -275 0
1 288 407 0
1 288 410 0
1 -311 -412 0
1 -311 307 0
1 311 413 0
1 -311 -304 0
1 -307 207 0
1 307 -294 0
1 307 -303 0
1 307 306 0
1 -307 -313 0
1 -323 -317 0
1 323 412 0
1 323 -308 0
1 317 -308 0
1 317 -414 0
1 -317 413 0
1 -317 -312 0
1 317 415 0
1 317 -301 0
1 412 -416 0
1 -412 307 0
1 412 417 0
1 -412 -311 0
1 412 -315 0
1 413 307 0
1 -413 417 0
1 413 315 0
1 -301 -317 0
1 -301 -418 0
1 301 307 0
1 -301 323 0
1 -301 -311 0
1 -417 -310 0
1 417 -413 0
1 417 312 0
1 417 -415 0
1 417 313 0
1 315 412 0
1 315 306 0
1 315 305 0
1 -315 413 0
1 -315 -312 0
1 329 314 0
1 -329 224 0
1 -329 -419 0
1 331 -310 0
1 331 -308 0
1 -331 318 0
1 -331 -328 0
1 331 413 0
1 331 -312 0
1 331 -419 0
1 308 -329 0
1 -308 -323 0
1 308 420 0
1 308 315 0
1 -415 -317 0
1 -415 329 0
1 415 -421 0
1 415 422 0
1 -415 -327 0
1 -415 331 0
1 415 315 0
1 310 -317 0
1 -310 423 0
1 310 329 0
1 -310 -323 0
1 -310 -315 0
1 312 317 0
1 312 -329 0
1 312 -304 0
1 -312 -424 0
1 312 331 0
1 -325 419 0
1 327 308 0
1 327 199 0
1 425 314 0
1 -425 -426 0
1 425 -326 0
1 425 -415 0
1 -425 427 0
1 -420 318 0
1 -420 -419 0
1 420 -415 0
1 -420 319 0
1 420 -335 0
1 314 -428 0
1 -314 -329 0
1 -314 419 0
1 -318 -429 0
1 -318 -306 0
1 318 430 0
1 318 319 0
1 -318 -327 0
1 319 -329 0
1 -319 -431 0
1 319 422 0
1 319 420 0
1 343 -340 0
1 -333 -326 0
1 -333 -432 0
1 -428 337 0
1 428 -432 0
1 -428 -334 0
1 -433 -314 0
1 -433 431 0
1 -433 -419 0
1 -433 427 0
1 433 -432 0
1 433 -334 0
1 -326 -341 0
1 326 -428 0
1 326 -196 0
1 -326 -333 0
1 -326 -432 0
1 432 434 0
1 -432 353 0
1 432 -428 0
1 432 199 0
1 426 -328 0
1 427 435 0
1 -427 -436 0
1 -427 -437 0
1 -427 -202 0
1 341 -326 0
1 -341 -330 0
1 -338 -330 0
1 353 438 0
1 -353 -435 0
1 -353 342 0
1 353 -439 0
1 -353 -344 0
1 -353 332 0
1 357 439 0
1 -357 -440 0
1 -357 -339 0
1 -357 345 0
1 332 -353 0
1 -332 441 0
1 -332 442 0
1 332 -357 0
1 -332 322 0
1 332 -443 0
1 332 444 0
1 -438 -320 0
1 -438 -428 0
1 438 -441 0
1 -438 -357 0
1 -438 444 0
1 438 363 0
1 -445 -353 0
1 -445 428 0
1 445 441 0
1 -445 -437 0
1 -445 -357 0
1 445 444 0
1 445 334 0
1 -334 -434 0
1 -334 -353 0
1 334 324 0
1 334 441 0
1 349 234 0
1 349 -339 0
1 349 -221 0
1 351 336 0
1 -351 -437 0
1 -351 332 0
1 351 -339 0
1 351 349 0
1 -363 -339 0
1 -363 -446 0
1 -363 -348 0
1 363 -355 0
1 363 366 0
1 442 -446 0
1 -442 355 0
1 -339 361 0
1 -339 -357 0
1 339 -447 0
1 -339 371 0
1 339 360 0
1 339 -363 0
1 -439 212 0
1 -439 -448 0
1 439 -374 0
1 -439 -371 0
1 -439 360 0
1 439 363 0
1 -440 342 0
1 440 -444 0
1 -440 349 0
1 342 353 0
1 -342 -215 0
1 -342 449 0
1 342 -447 0
1 360 -364 0
1 360 450 0
1 360 -347 0
1 -360 348 0
1 360 -339 0
1 -360 355 0
1 -361 364 0
1 -361 365 0
1 -371 374 0
1 374 -364 0
1 -374 -263 0
1 374 -451 0
1 -374 -339 0
1 374 452 0
1 -348 -442 0
1 -348 -368 0
1 -348 363 0
1 450 361 0
1 -450 371 0
1 446 453 0
1 446 -361 0
1 -446 -442 0
1 -446 454 0
1 446 -455 0
1 -446 363 0
1 -456 -453 0
1 456 344 0
1 -456 -361 0
1 -456 371 0
1 456 360 0
1 -368 -356 0
1 -368 -260 0
1 -368 -452 0
1 368 -457 0
1 -370 -245 0
1 -370 -457 0
1 -458 -369 0
1 458 -362 0
1 458 459 0
1 458 -380 0
1 -458 455 0
1 378 -362 0
1 378 -458 0
1 378 457 0
1 -457 362 0
1 457 -383 0
1 -457 376 0
1 -457 371 0
1 -457 460 0
1 362 370 0
1 -362 -383 0
1 452 -453 0
1 -452 -374 0
1 452 461 0
1 -452 -368 0
1 452 -355 0
1 -452 -462 0
1 451 453 0
1 451 -370 0
1 451 -374 0
1 451 463 0
1 -451 452 0
1 376 464 0
1 376 -362 0
1 -376 -459 0
1 376 -372 0
1 -465 453 0
1 -465 379 0
1 -465 362 0
1 465 -459 0
1 -383 -369 0
1 383 -379 0
1 -383 466 0
1 383 467 0
1 -383 377 0
1 383 -252 0
1 -460 -459 0
1 -460 -467 0
1 -460 457 0
1 464 -378 0
1 -464 -468 0
1 -464 388 0
1 464 -467 0
1 -464 458 0
1 464 469 0
1 -464 470 0
1 -464 -382 0
1 -467 -388 0
1 467 -469 0
1 467 382 0
1 467 460 0
1 369 -471 0
1 369 -461 0
1 -369 458 0
1 459 369 0
1 -459 378 0
1 -459 -469 0
1 -459 -472 0
1 -388 382 0
1 -388 379 0
1 388 -473 0
1 388 -375 0
1 388 -389 0
1 382 464 0
1 382 -474 0
1 -382 -475 0
1 -382 249 0
1 -382 -388 0
1 -382 252 0
1 -390 -287 0
1 390 387 0
1 390 -467 0
1 -390 473 0
1 -390 389 0
1 470 -474 0
1 -470 -476 0
1 470 -390 0
1 470 477 0
1 470 473 0
1 -470 389 0
1 475 367 0
1 -475 -382 0
1 377 475 0
1 -377 478 0
1 -377 -372 0
1 -377 -386 0
1 377 -382 0
1 474 -468 0
1 474 -388 0
1 474 478 0
1 474 479 0
1 -474 -382 0
1 -474 460 0
1 -473 468 0
1 -473 383 0
1 -473 478 0
1 -473 469 0
1 -473 -470 0
1 -385 -286 0
1 -385 -389 0
1 385 381 0
1 386 385 0
1 -386 272 0
1 386 469 0
1 -397 -400 0
1 -397 480 0
1 397 -476 0
1 397 -377 0
1 397 -481 0
1 482 377 0
1 -482 483 0
1 482 -479 0
1 -477 -403 0
1 477 390 0
1 -477 405 0
1 481 -375 0
1 -481 -405 0
1 481 -398 0
1 481 -470 0
1 476 -484 0
1 -476 397 0
1 476 -482 0
1 -476 386 0
1 -476 485 0
1 485 -486 0
1 485 484 0
1 -485 -397 0
1 485 385 0
1 -485 476 0
1 -485 -482 0
1 403 -406 0
1 403 481 0
1 398 269 0
1 398 392 0
1 398 393 0
1 -398 -481 0
1 404 392 0
1 404 393 0
1 -404 481 0
1 -404 487 0
1 -405 -404 0
1 405 393 0
1 405 488 0
1 -489 -403 0
1 -489 405 0
1 -489 488 0
1 -488 404 0
1 -488 -403 0
1 488 -489 0
1 488 381 0
1 -483 -403 0
1 -483 397 0
1 483 387 0
1 487 -404 0
1 -487 483 0
1 487 -398 0
1 487 -482 0
1 -423 318 0
1 423 490 0
1 -423 -491 0
1 422 423 0
1 -422 312 0
1 429 -418 0
1 -429 -416 0
1 429 492 0
1 -429 431 0
1 431 -416 0
1 -431 318 0
1 431 490 0
1 -416 -412 0
1 416 -493 0
1 491 416 0
1 -491 -494 0
1 491 413 0
1 -418 423 0
1 -418 -431 0
1 -418 422 0
1 -418 -301 0
1 436 495 0
1 -436 492 0
1 436 -319 0
1 -496 416 0
1 496 318 0
1 496 491 0
1 -496 -421 0
1 435 495 0
1 435 430 0
1 -435 497 0
1 -494 -416 0
1 -494 495 0
1 494 -497 0
1 -494 -357 0
1 492 -429 0
1 -492 -498 0
1 492 499 0
1 -492 437 0
1 492 -494 0
1 492 421 0
1 -421 -434 0
1 421 -436 0
1 421 429 0
1 421 -499 0
1 -421 500 0
1 -421 -501 0
1 -495 435 0
1 -495 424 0
1 424 495 0
1 424 -429 0
1 -424 499 0
1 424 502 0
1 424 431 0
1 -424 503 0
1 434 -437 0
1 -434 421 0
1 -434 -504 0
1 -434 427 0
1 -437 426 0
1 437 504 0
1 437 334 0
1 -505 -497 0
1 505 506 0
1 505 445 0
1 505 421 0
1 -505 -507 0
1 -500 -442 0
1 -500 -505 0
1 497 508 0
1 -497 444 0
1 -504 444 0
1 -430 -509 0
1 -430 318 0
1 -430 510 0
1 -430 500 0
1 -430 -511 0
1 512 -435 0
1 -512 509 0
1 -512 -494 0
1 512 -513 0
1 512 -511 0
1 444 -342 0
1 -444 497 0
1 -444 334 0
1 -441 -438 0
1 -441 342 0
1 -441 361 0
1 -441 499 0
1 -441 -506 0
1 -441 -440 0
1 -441 504 0
1 -514 515 0
1 514 -516 0
1 514 506 0
1 -514 443 0
1 514 -371 0
1 514 -504 0
1 514 -517 0
1 516 -515 0
1 -516 -374 0
1 516 497 0
1 516 -518 0
1 -516 440 0
1 506 -516 0
1 -506 -517 0
1 -506 -441 0
1 -506 447 0
1 506 444 0
1 517 -519 0
1 -517 -516 0
1 -517 520 0
1 517 -447 0
1 -517 514 0
1 517 444 0
1 517 505 0
1 521 522 0
1 -521 -513 0
1 521 505 0
1 507 509 0
1 -507 -521 0
1 507 -513 0
1 507 -505 0
1 447 -515 0
1 -447 -456 0
1 447 518 0
1 -447 443 0
1 447 339 0
1 -448 -515 0
1 -448 523 0
1 448 342 0
1 -448 -439 0
1 -448 -506 0
1 448 -518 0
1 455 -524 0
1 455 456 0
1 455 518 0
1 -455 -443 0
1 455 -446 0
1 519 515 0
1 519 -525 0
1 -519 526 0
1 519 -446 0
1 -519 -517 0
1 -443 -516 0
1 -443 -527 0
1 -523 528 0
1 523 -448 0
1 -523 516 0
1 523 -463 0
1 523 -443 0
1 -523 455 0
1 -523 527 0
1 518 -516 0
1 -518 -520 0
1 518 -455 0
1 -518 -514 0
1 -518 -527 0
1 515 529 0
1 -515 -530 0
1 515 -455 0
1 -515 447 0
1 515 334 0
1 -463 456 0
1 463 376 0
1 463 -443 0
1 463 -526 0
1 463 531 0
1 453 449 0
1 -453 -456 0
1 -453 531 0
1 466 -523 0
1 466 451 0
1 -466 -443 0
1 466 531 0
1 466 454 0
1 466 -452 0
1 532 -533 0
1 532 -449 0
1 532 -451 0
1 532 -443 0
1 532 -534 0
1 -531 -532 0
1 531 455 0
1 531 339 0
1 -531 535 0
1 -524 453 0
1 524 -536 0
1 -524 -471 0
1 524 -461 0
1 -524 -466 0
1 524 -537 0
1 -526 532 0
1 -526 -519 0
1 -526 -538 0
1 526 455 0
1 -526 527 0
1 449 -453 0
1 -449 342 0
1 -449 539 0
1 -449 -455 0
1 -449 526 0
1 449 540 0
1 -461 -369 0
1 -461 -388 0
1 461 452 0
1 -461 454 0
1 462 -541 0
1 462 -362 0
1 462 -382 0
1 -462 -527 0
1 471 524 0
1 -471 541 0
1 471 -390 0
1 -471 -542 0
1 -472 369 0
1 -472 -524 0
1 -472 541 0
1 -472 459 0
1 472 470 0
1 -534 -468 0
1 -534 -543 0
1 534 -471 0
1 -534 461 0
1 -534 462 0
1 -543 -532 0
1 -543 544 0
1 -543 480 0
1 543 450 0
1 -543 471 0
1 -543 479 0
1 -454 545 0
1 -454 -471 0
1 454 -546 0
1 454 -446 0
1 454 537 0
1 -541 -544 0
1 541 456 0
1 541 -466 0
1 541 -537 0
1 -468 -547 0
1 468 467 0
1 -469 369 0
1 -469 468 0
1 469 543 0
1 469 -467 0
1 469 542 0
1 480 548 0
1 -480 474 0
1 480 543 0
1 480 549 0
1 -480 -550 0
1 479 548 0
1 479 -551 0
1 479 547 0
1 479 549 0
1 479 552 0
1 -479 -473 0
1 479 -542 0
1 -548 -553 0
1 -548 478 0
1 -548 479 0
1 549 -362 0
1 -549 469 0
1 549 -472 0
1 -542 -554 0
1 542 471 0
1 -542 479 0
1 -547 554 0
1 547 -468 0
1 -547 -555 0
1 -547 472 0
1 547 -542 0
1 -484 551 0
1 484 -403 0
1 -478 -475 0
1 -478 -476 0
1 -478 549 0
1 -478 377 0
1 -486 -556 0
1 -553 556 0
1 -553 550 0
1 553 -552 0
1 553 485 0
1 552 -551 0
1 552 484 0
1 556 -486 0
1 556 479 0
1 550 -484 0
1 550 -459 0
1 -550 -479 0
1 503 492 0
1 -499 557 0
1 499 -430 0
1 499 441 0
1 -499 -558 0
1 -511 -559 0
1 511 -560 0
1 511 -561 0
1 560 -430 0
1 560 512 0
1 -493 509 0
1 -493 499 0
1 -493 511 0
1 -493 503 0
1 558 -499 0
1 558 562 0
1 557 418 0
1 557 499 0
1 561 -490 0
1 561 563 0
1 513 559 0
1 513 -504 0
1 513 502 0
1 513 -507 0
1 509 -493 0
1 -509 559 0
1 509 -512 0
1 -509 -507 0
1 564 -559 0
1 -564 -498 0
1 -564 -455 0
1 -564 -507 0
1 -525 493 0
1 525 -519 0
1 -525 507 0
1 -498 533 0
1 498 -492 0
1 498 -565 0
1 -498 564 0
1 -498 -501 0
1 -498 -511 0
1 501 -565 0
1 501 566 0
1 -501 567 0
1 559 -525 0
1 -559 -495 0
1 -559 -564 0
1 559 -513 0
1 502 559 0
1 502 -568 0
1 -502 424 0
1 502 511 0
1 520 529 0
1 520 -506 0
1 520 -463 0
1 520 569 0
1 520 -517 0
1 529 -515 0
1 529 -521 0
1 529 -570 0
1 -565 508 0
1 -565 522 0
1 -565 -518 0
1 565 -569 0
1 -533 -498 0
1 -533 510 0
1 -533 -508 0
1 -533 -518 0
1 533 -501 0
1 -508 -529 0
1 -508 -539 0
1 -508 540 0
1 -569 533 0
1 569 525 0
1 569 508 0
1 -569 -539 0
1 -569 -565 0
1 -569 -520 0
1 -569 -504 0
1 -569 527 0
1 -510 565 0
1 510 -520 0
1 510 571 0
1 570 -529 0
1 -570 -510 0
1 -570 -572 0
1 -570 -568 0
1 -570 -564 0
1 -570 571 0
1 530 -523 0
1 -530 449 0
1 530 443 0
1 530 526 0
1 530 569 0
1 530 -527 0
1 -527 523 0
1 -527 573 0
1 -527 -522 0
1 527 -526 0
1 -539 -572 0
1 539 -522 0
1 539 574 0
1 539 -540 0
1 -539 -575 0
1 -540 -539 0
1 540 576 0
1 -540 -577 0
1 -540 -578 0
1 573 -579 0
1 -573 -506 0
1 573 -537 0
1 -573 -540 0
1 -573 527 0
1 -573 -578 0
1 578 533 0
1 578 545 0
1 578 517 0
1 -578 -539 0
1 -578 573 0
1 -522 580 0
1 522 581 0
1 -522 -575 0
1 575 -539 0
1 -575 -522 0
1 -575 565 0
1 575 -571 0
1 -575 540 0
1 575 -527 0
1 538 -524 0
1 -538 -574 0
1 538 -576 0
1 538 531 0
1 538 537 0
1 537 528 0
1 -537 574 0
1 537 -454 0
1 545 -582 0
1 545 573 0
1 -545 -574 0
1 -583 -584 0
1 -583 -576 0
1 -583 -585 0
1 583 -581 0
1 576 528 0
1 -576 -443 0
1 -528 554 0
1 528 -544 0
1 528 545 0
1 -528 -546 0
1 528 -583 0
1 574 -545 0
1 -574 -538 0
1 574 518 0
1 574 580 0
1 -574 537 0
1 -582 515 0
1 582 586 0
1 -582 -579 0
1 582 -545 0
1 -582 538 0
1 582 -580 0
1 -544 -584 0
1 -544 536 0
1 -544 541 0
1 544 -543 0
1 544 -547 0
1 -544 -546 0
1 -546 528 0
1 546 536 0
1 546 541 0
1 546 -543 0
1 -546 576 0
1 -546 -478 0
1 -554 -576 0
1 -554 -535 0
1 -555 554 0
1 555 -536 0
1 -555 -576 0
1 555 535 0
1 535 555 0
1 536 -535 0
1 -585 544 0
1 585 -555 0
1 584 -449 0
1 -584 554 0
1 584 544 0
1 584 -545 0
1 -584 -555 0
1 -584 -583 0
1 568 510 0
1 -568 562 0
1 568 567 0
1 567 -587 0
1 -567 568 0
1 -567 -562 0
1 -572 588 0
1 572 -510 0
1 572 -570 0
1 577 587 0
1 577 -588 0
1 577 572 0
1 -577 589 0
1 -577 -570 0
1 588 -572 0
1 -588 -571 0
1 562 -572 0
1 562 568 0
1 562 -567 0
1 -587 -557 0
1 -587 -572 0
1 -587 -563 0
1 563 -572 0
1 590 588 0
1 -590 -591 0
1 -590 538 0
1 590 -508 0
1 590 -522 0
1 590 -562 0
1 590 -569 0
1 571 -522 0
1 571 -562 0
1 -571 -575 0
1 -592 -588 0
1 -592 -591 0
1 -592 -593 0
1 -592 594 0
1 -592 581 0
1 581 -591 0
1 581 562 0
1 -581 -589 0
1 593 -498 0
1 -593 -566 0
1 -593 572 0
1 -593 -580 0
1 -593 -577 0
1 -566 -586 0
1 591 572 0
1 -591 581 0
1 -589 592 0
1 579 566 0
1 579 574 0
1 579 -578 0
1 580 522 0
1 580 -546 0
1 586 -593 0
1 586 -595 0
1 -596 -595 0
1 -596 574 0
1 596 -555 0
1 -596 -597 0
1 595 596 0
1 597 580 0
1 -597 -569 0
1 -598 510 0
1 -598 -592 0
1 -598 -596 0
1 -594 579 0
1 594 592 0
1 594 -598 0
1 594 -596 0
1 -594 570 0
